0 0.0 127.0
1 46.0 257.0
2 57.0 501.0
3 67.0 418.0
4 79.0 524.0
5 130.0 485.0
6 135.0 522.0
7 182.0 547.0
8 186.0 555.0
9 192.0 106.0
10 202.0 676.0
11 213.0 645.0
12 221.0 486.0
13 224.0 129.0
14 229.0 480.0
15 250.0 621.0
16 256.0 627.0
17 261.0 626.0
18 263.0 627.0
19 303.0 406.0
20 315.0 0.0
21 330.0 467.0
22 339.0 389.0
23 345.0 500.0
24 362.0 400.0
25 372.0 393.0
26 424.0 694.0
27 428.0 568.0
28 466.0 172.0
29 506.0 306.0
30 567.0 725.0
31 573.0 285.0
32 597.0 630.0
33 601.0 646.0
34 605.0 418.0
35 611.0 715.0
36 626.0 506.0
37 725.0 543.0
